SDVRP instances/custom_instances/p03_24_splitx10_0.vrp
NAME:p03_24_splitx10_
BEST_KNOWN: 0
COMMENT: 0
DIMENSION: 448
CAPACITY: 2000
EDGE_WEIGHT_FORMAT: FUNCTION
EDGE_WEIGHT_TYPE: EXACT_2D
NODE_COORD_SECTION
1 0.00000 0.00000
2 9 -19
3 9 -19
4 9 -19
5 -40 23
6 -40 23
7 -40 23
8 -40 23
9 -40 23
10 -23 23
11 -23 23
12 -23 23
13 36 30
14 36 30
15 36 30
16 36 30
17 -31 -8
18 -31 -8
19 -31 -8
20 -31 -8
21 -31 -8
22 -7 -9
23 -7 -9
24 -7 -9
25 -7 -9
26 -7 -9
27 -7 -9
28 -7 -9
29 -7 -9
30 -4 12
31 -4 12
32 -4 12
33 -5 -42
34 -5 -42
35 -5 -42
36 -5 -42
37 30 42
38 30 42
39 30 42
40 -35 -6
41 -35 -6
42 -35 -6
43 -35 -6
44 -35 -6
45 -26 34
46 -26 34
47 -26 34
48 -43 36
49 -43 36
50 -43 36
51 -43 36
52 -43 36
53 -43 36
54 -9 -15
55 -9 -15
56 -9 -15
57 -9 -15
58 49 30
59 49 30
60 49 30
61 49 30
62 49 30
63 49 30
64 49 30
65 -20 -37
66 -20 -37
67 -20 -37
68 -31 -42
69 -31 -42
70 -31 -42
71 -31 -42
72 -31 -42
73 44 -3
74 44 -3
75 44 -3
76 22 -34
77 22 -34
78 22 -34
79 17 -37
80 17 -37
81 17 -37
82 17 -37
83 17 -37
84 17 -37
85 17 -37
86 -3 -25
87 -3 -25
88 -3 -25
89 -3 -25
90 -3 -25
91 -3 -25
92 -21 32
93 -21 32
94 -21 32
95 -21 32
96 -21 32
97 -21 32
98 36 15
99 36 15
100 36 15
101 31 -12
102 31 -12
103 31 -12
104 31 -12
105 40 38
106 40 38
107 40 38
108 40 38
109 40 38
110 -16 42
111 -16 42
112 -16 42
113 -16 42
114 -16 42
115 -16 42
116 37 27
117 37 27
118 37 27
119 -9 -35
120 -9 -35
121 -9 -35
122 -9 -35
123 -28 12
124 -28 12
125 -28 12
126 -28 12
127 -28 12
128 -28 12
129 -28 12
130 -15 18
131 -15 18
132 -15 18
133 -15 18
134 24 29
135 24 29
136 24 29
137 50 15
138 50 15
139 50 15
140 50 15
141 50 15
142 50 15
143 -11 4
144 -11 4
145 -11 4
146 -11 4
147 -11 4
148 -11 4
149 -11 4
150 2 -42
151 2 -42
152 2 -42
153 2 -42
154 2 -42
155 -20 13
156 -20 13
157 -20 13
158 -20 13
159 -35 37
160 -35 37
161 -35 37
162 -21 47
163 -21 47
164 -42 44
165 -42 44
166 -42 44
167 -34 -42
168 -34 -42
169 -34 -42
170 -34 -42
171 -34 -42
172 -34 -42
173 -34 -42
174 49 -41
175 49 -41
176 49 -41
177 49 -41
178 49 -41
179 49 -41
180 -28 38
181 -28 38
182 -28 38
183 -28 38
184 -33 38
185 -33 38
186 -33 38
187 -33 38
188 49 -13
189 49 -13
190 49 -13
191 49 -13
192 49 -13
193 49 -13
194 45 32
195 45 32
196 45 32
197 45 32
198 45 32
199 45 32
200 45 32
201 45 32
202 -50 -23
203 -50 -23
204 -50 -23
205 33 26
206 33 26
207 33 26
208 9 28
209 9 28
210 9 28
211 9 28
212 -41 29
213 -41 29
214 -41 29
215 31 32
216 31 32
217 31 32
218 -26 5
219 -26 5
220 -26 5
221 -26 5
222 -26 5
223 -26 5
224 -26 5
225 -26 5
226 45 -41
227 45 -41
228 45 -41
229 -14 -3
230 -14 -3
231 -16 -17
232 -16 -17
233 -16 -17
234 43 -13
235 43 -13
236 43 -13
237 43 -13
238 43 -13
239 43 -34
240 43 -34
241 43 -34
242 43 -34
243 43 -34
244 43 -34
245 3 -38
246 35 36
247 35 36
248 35 36
249 35 36
250 35 36
251 35 36
252 8 -23
253 8 -23
254 8 -23
255 8 -23
256 37 30
257 37 30
258 37 30
259 37 30
260 -32 10
261 -32 10
262 -32 10
263 -32 10
264 -32 10
265 -32 2
266 -32 2
267 -32 2
268 -32 2
269 -32 2
270 -45 39
271 -45 39
272 -45 39
273 -27 -19
274 -27 -19
275 -27 -19
276 -27 -19
277 -27 -19
278 -27 -19
279 -27 -19
280 -43 -3
281 -43 -3
282 10 17
283 10 17
284 10 17
285 10 17
286 10 17
287 -48 50
288 -48 50
289 -48 50
290 -48 50
291 -2 15
292 -2 15
293 -2 15
294 -2 15
295 -2 15
296 -2 15
297 -2 15
298 -48 -46
299 -48 -46
300 -48 -46
301 -48 -46
302 -50 29
303 -50 29
304 -50 29
305 -50 29
306 19 43
307 19 43
308 19 43
309 19 43
310 -15 -6
311 -15 -6
312 -15 -6
313 -15 -6
314 -15 -6
315 -15 -6
316 7 -5
317 7 -5
318 7 -5
319 7 -5
320 -17 12
321 -17 12
322 -17 12
323 35 43
324 35 43
325 35 43
326 35 43
327 35 43
328 -8 7
329 -8 7
330 -8 7
331 -8 7
332 -8 7
333 18 35
334 18 35
335 18 35
336 18 35
337 39 -17
338 39 -17
339 2 -39
340 2 -39
341 11 30
342 11 30
343 11 30
344 11 30
345 11 30
346 11 30
347 11 30
348 11 30
349 -33 18
350 -33 18
351 -33 18
352 -33 18
353 3 48
354 3 48
355 3 48
356 3 48
357 3 48
358 -25 8
359 -1 21
360 -1 21
361 -1 21
362 -1 21
363 10 -11
364 10 -11
365 10 -11
366 10 -11
367 19 26
368 19 26
369 -8 20
370 -8 20
371 -8 20
372 -8 20
373 -8 20
374 -12 -39
375 -12 -39
376 -12 -39
377 -12 -39
378 -12 -39
379 -12 -39
380 -12 -39
381 9 45
382 9 45
383 9 45
384 9 45
385 9 45
386 9 45
387 46 -49
388 46 -49
389 46 -49
390 46 -49
391 46 -49
392 -43 -18
393 -43 -18
394 -43 -18
395 -43 -18
396 -17 -8
397 -17 -8
398 -17 -8
399 41 -11
400 41 -11
401 41 -11
402 3 5
403 3 5
404 3 5
405 3 5
406 3 5
407 14 8
408 14 8
409 14 8
410 -34 -18
411 -34 -18
412 -34 -18
413 -34 -18
414 -8 3
415 -8 3
416 -8 3
417 -8 3
418 -8 3
419 -8 3
420 -8 3
421 -44 7
422 -44 7
423 -44 7
424 -44 7
425 -44 7
426 -44 7
427 -33 28
428 -33 28
429 -33 28
430 -33 28
431 -33 28
432 -33 28
433 -33 28
434 31 -41
435 31 -41
436 31 -41
437 -3 -14
438 -3 -14
439 -3 -14
440 -3 -14
441 -3 -14
442 -3 -14
443 19 -47
444 19 -47
445 19 -47
446 19 -47
447 19 -47
448 19 -47
DEMAND_SECTION
1 0
2 400
3 200
4 20
5 400
6 400
7 20
8 20
9 20
10 400
11 400
12 200
13 400
14 400
15 20
16 20
17 400
18 100
19 20
20 20
21 20
22 400
23 200
24 100
25 20
26 20
27 20
28 20
29 10
30 400
31 400
32 200
33 400
34 20
35 20
36 10
37 400
38 200
39 20
40 400
41 20
42 20
43 20
44 20
45 400
46 400
47 100
48 400
49 100
50 20
51 20
52 20
53 20
54 400
55 200
56 20
57 10
58 400
59 400
60 20
61 20
62 20
63 20
64 10
65 400
66 20
67 10
68 400
69 100
70 20
71 20
72 10
73 400
74 400
75 10
76 400
77 200
78 20
79 400
80 400
81 100
82 20
83 20
84 20
85 10
86 200
87 100
88 20
89 20
90 20
91 10
92 200
93 100
94 20
95 20
96 20
97 10
98 400
99 200
100 20
101 200
102 20
103 20
104 10
105 400
106 400
107 100
108 20
109 10
110 400
111 100
112 20
113 20
114 20
115 20
116 400
117 20
118 10
119 400
120 200
121 100
122 10
123 400
124 400
125 20
126 20
127 20
128 20
129 10
130 400
131 20
132 20
133 10
134 400
135 200
136 10
137 400
138 100
139 20
140 20
141 20
142 10
143 400
144 400
145 100
146 20
147 20
148 20
149 20
150 200
151 20
152 20
153 20
154 10
155 200
156 20
157 20
158 20
159 400
160 400
161 200
162 400
163 200
164 400
165 200
166 20
167 400
168 200
169 100
170 20
171 20
172 20
173 20
174 400
175 100
176 20
177 20
178 20
179 10
180 200
181 20
182 20
183 20
184 400
185 100
186 20
187 20
188 400
189 400
190 20
191 20
192 20
193 20
194 400
195 200
196 100
197 20
198 20
199 20
200 20
201 10
202 400
203 20
204 20
205 400
206 100
207 20
208 400
209 20
210 20
211 20
212 400
213 20
214 10
215 400
216 200
217 20
218 400
219 400
220 100
221 20
222 20
223 20
224 20
225 10
226 200
227 100
228 20
229 200
230 100
231 400
232 20
233 10
234 200
235 100
236 20
237 20
238 10
239 400
240 200
241 100
242 20
243 20
244 10
245 400
246 400
247 200
248 100
249 20
250 20
251 20
252 200
253 100
254 20
255 10
256 400
257 400
258 20
259 20
260 200
261 100
262 20
263 20
264 20
265 400
266 200
267 100
268 20
269 20
270 400
271 20
272 20
273 400
274 200
275 100
276 20
277 20
278 20
279 10
280 400
281 400
282 200
283 100
284 20
285 20
286 20
287 400
288 100
289 20
290 10
291 400
292 200
293 20
294 20
295 20
296 20
297 10
298 400
299 100
300 20
301 20
302 400
303 20
304 20
305 10
306 200
307 20
308 20
309 10
310 400
311 400
312 100
313 20
314 20
315 20
316 400
317 100
318 20
319 10
320 400
321 400
322 200
323 400
324 20
325 20
326 20
327 10
328 400
329 400
330 20
331 20
332 20
333 400
334 100
335 20
336 10
337 400
338 400
339 200
340 100
341 400
342 200
343 100
344 20
345 20
346 20
347 20
348 10
349 400
350 20
351 20
352 10
353 400
354 400
355 20
356 20
357 20
358 400
359 400
360 200
361 20
362 10
363 400
364 20
365 20
366 10
367 200
368 100
369 400
370 200
371 100
372 20
373 20
374 400
375 400
376 100
377 20
378 20
379 20
380 20
381 200
382 100
383 20
384 20
385 20
386 10
387 400
388 400
389 20
390 20
391 10
392 400
393 400
394 20
395 10
396 400
397 20
398 20
399 400
400 200
401 10
402 400
403 400
404 100
405 20
406 10
407 400
408 200
409 100
410 400
411 400
412 20
413 10
414 400
415 200
416 100
417 20
418 20
419 20
420 20
421 400
422 200
423 20
424 20
425 20
426 20
427 400
428 200
429 100
430 20
431 20
432 20
433 10
434 400
435 400
436 10
437 400
438 400
439 100
440 20
441 20
442 20
443 200
444 100
445 20
446 20
447 20
448 10
DEPOT_SECTION
1
-1
EOF