SDVRP instances/custom_instances/p03_24_splitx10_0.sol
447 -3 1 2 79 84 82 78 253 251 254 252 -9 11 10 321 319 320 -12 13 255 256 115 -20 16 17 18 19 394 393 392 391 202 201 203 396 397 -24 26 23 22 395 314 313 312 309 311 310 229 228 -25 27 28 21 53 55 54 56 441 437 438 436 -30 29 369 368 372 371 370 328 331 329 330 -31 293 291 296 295 292 290 294 360 361 358 359 283 282 281 284 285 405 404 -42 41 40 43 39 279 280 425 424 420 421 423 422 -44 45 46 160 159 158 -65 66 64 378 377 376 374 373 375 379 118 121 120 439 440 -68 69 70 71 67 166 171 169 170 167 168 172 297 300 299 298 231 232 -72 74 73 138 136 137 140 139 141 99 97 98 -76 75 77 435 433 434 442 445 444 446 443 447 83 81 80 -90 88 86 89 85 87 119 35 32 33 34 150 152 153 151 149 339 338 244 -94 95 182 179 180 181 288 287 289 286 163 164 165 186 183 184 185 -100 337 336 239 238 362 -111 114 110 113 109 112 162 161 96 93 92 91 129 132 131 130 -116 117 59 62 60 63 58 61 57 196 199 193 195 194 200 197 198 258 257 15 14 206 205 -146 148 144 147 145 217 223 218 222 219 220 224 221 268 267 266 264 265 -155 157 156 154 123 126 128 125 127 124 122 262 261 259 260 263 357 -204 108 106 104 107 105 249 246 245 248 216 -207 343 344 340 347 346 341 345 135 134 133 366 367 -209 210 208 342 334 37 36 38 323 324 326 325 322 250 247 214 215 -213 212 211 50 51 49 47 48 52 270 271 269 304 302 301 303 8 7 6 351 349 -230 272 273 278 277 276 275 274 409 412 410 411 -315 408 406 407 402 401 403 -317 240 243 242 241 178 174 173 177 175 176 389 390 388 386 387 226 227 225 363 365 364 -318 316 103 101 102 235 237 233 234 236 189 188 191 190 187 192 398 400 399 -327 143 142 414 416 418 415 413 417 419 -332 335 333 308 307 306 305 383 381 385 384 382 380 352 353 354 356 355 -350 348 4 5 432 428 427 426 430 431 429 0 





OBJ=
2950.156
BEST_KNOWN=
0.000